1062,787
977,452
1108,545
1080,535
681,-134
681,-14
617,605
613,539
593,527
613,539
707,393
681,406
681,646
464,833
593,527
464,-21
762,246
699,349
533,383
567,369
744,343
644,520
620,791
464,833
382,818
609,458
628,433
644,520
945,770
1045,670
1080,535
804,237
844,86
672,347
847,-107
654,321
512,283
567,369
512,283
611,-38
681,-14
829,258
850,283
945,770
885,806
620,791
885,806
707,393
